(set-info :category "industrial")
(set-info :status sat)
(declare-fun x00 () (_ BitVec 8))
(declare-fun x02 () (_ BitVec 8))
(declare-fun x03 () (_ BitVec 8))
(declare-fun x05 () (_ BitVec 8))
(declare-fun x07 () (_ BitVec 8))
(declare-fun x08 () (_ BitVec 8))
(declare-fun x10 () (_ BitVec 8))
(declare-fun x11 () (_ BitVec 8))
(declare-fun x13 () (_ BitVec 8))
(declare-fun x14 () (_ BitVec 8))
(declare-fun x17 () (_ BitVec 8))
(declare-fun x20 () (_ BitVec 8))
(declare-fun x22 () (_ BitVec 8))
(declare-fun x24 () (_ BitVec 8))
(declare-fun x25 () (_ BitVec 8))
(declare-fun x26 () (_ BitVec 8))
(declare-fun x28 () (_ BitVec 8))
(declare-fun x31 () (_ BitVec 8))
(declare-fun x33 () (_ BitVec 8))
(declare-fun x36 () (_ BitVec 8))
(declare-fun x37 () (_ BitVec 8))
(declare-fun x38 () (_ BitVec 8))
(declare-fun x43 () (_ BitVec 8))
(declare-fun x45 () (_ BitVec 8))
(declare-fun x47 () (_ BitVec 8))
(declare-fun x48 () (_ BitVec 8))
(declare-fun x50 () (_ BitVec 8))
(declare-fun x51 () (_ BitVec 8))
(declare-fun x52 () (_ BitVec 8))
(declare-fun x54 () (_ BitVec 8))
(declare-fun x55 () (_ BitVec 8))
(declare-fun x56 () (_ BitVec 8))
(declare-fun x58 () (_ BitVec 8))
(declare-fun x60 () (_ BitVec 8))
(declare-fun x65 () (_ BitVec 8))
(declare-fun x67 () (_ BitVec 8))
(declare-fun x70 () (_ BitVec 8))
(declare-fun x71 () (_ BitVec 8))
(declare-fun x75 () (_ BitVec 8))
(declare-fun x76 () (_ BitVec 8))
(declare-fun x77 () (_ BitVec 8))
(declare-fun x80 () (_ BitVec 8))
(declare-fun x81 () (_ BitVec 8))
(declare-fun x83 () (_ BitVec 8))
(declare-fun x84 () (_ BitVec 8))
(declare-fun x87 () (_ BitVec 8))
(declare-fun x88 () (_ BitVec 8))
(assert (bvult x00 (_ bv9 8)))
(assert (bvult x02 (_ bv9 8)))
(assert (bvult x03 (_ bv9 8)))
(assert (bvult x05 (_ bv9 8)))
(assert (bvult x07 (_ bv9 8)))
(assert (bvult x08 (_ bv9 8)))
(assert (bvult x10 (_ bv9 8)))
(assert (bvult x11 (_ bv9 8)))
(assert (bvult x13 (_ bv9 8)))
(assert (bvult x14 (_ bv9 8)))
(assert (bvult x17 (_ bv9 8)))
(assert (bvult x20 (_ bv9 8)))
(assert (bvult x22 (_ bv9 8)))
(assert (bvult x24 (_ bv9 8)))
(assert (bvult x25 (_ bv9 8)))
(assert (bvult x26 (_ bv9 8)))
(assert (bvult x28 (_ bv9 8)))
(assert (bvult x31 (_ bv9 8)))
(assert (bvult x33 (_ bv9 8)))
(assert (bvult x36 (_ bv9 8)))
(assert (bvult x37 (_ bv9 8)))
(assert (bvult x38 (_ bv9 8)))
(assert (bvult x43 (_ bv9 8)))
(assert (bvult x45 (_ bv9 8)))
(assert (bvult x47 (_ bv9 8)))
(assert (bvult x48 (_ bv9 8)))
(assert (bvult x50 (_ bv9 8)))
(assert (bvult x51 (_ bv9 8)))
(assert (bvult x52 (_ bv9 8)))
(assert (bvult x54 (_ bv9 8)))
(assert (bvult x55 (_ bv9 8)))
(assert (bvult x56 (_ bv9 8)))
(assert (bvult x58 (_ bv9 8)))
(assert (bvult x60 (_ bv9 8)))
(assert (bvult x65 (_ bv9 8)))
(assert (bvult x67 (_ bv9 8)))
(assert (bvult x70 (_ bv9 8)))
(assert (bvult x71 (_ bv9 8)))
(assert (bvult x75 (_ bv9 8)))
(assert (bvult x76 (_ bv9 8)))
(assert (bvult x77 (_ bv9 8)))
(assert (bvult x80 (_ bv9 8)))
(assert (bvult x81 (_ bv9 8)))
(assert (bvult x83 (_ bv9 8)))
(assert (bvult x84 (_ bv9 8)))
(assert (bvult x87 (_ bv9 8)))
(assert (bvult x88 (_ bv9 8)))
(assert (not (= x00 (_ bv8 8))))
(assert (not (= x00 x02)))
(assert (not (= x00 x03)))
(assert (not (= x00 (_ bv7 8))))
(assert (not (= x00 x05)))
(assert (not (= x00 (_ bv3 8))))
(assert (not (= x00 x07)))
(assert (not (= x00 x08)))
(assert (not (= (_ bv8 8) x02)))
(assert (not (= (_ bv8 8) x03)))
(assert (not (= (_ bv8 8) (_ bv7 8))))
(assert (not (= (_ bv8 8) x05)))
(assert (not (= (_ bv8 8) (_ bv3 8))))
(assert (not (= (_ bv8 8) x07)))
(assert (not (= (_ bv8 8) x08)))
(assert (not (= x02 x03)))
(assert (not (= x02 (_ bv7 8))))
(assert (not (= x02 x05)))
(assert (not (= x02 (_ bv3 8))))
(assert (not (= x02 x07)))
(assert (not (= x02 x08)))
(assert (not (= x03 (_ bv7 8))))
(assert (not (= x03 x05)))
(assert (not (= x03 (_ bv3 8))))
(assert (not (= x03 x07)))
(assert (not (= x03 x08)))
(assert (not (= (_ bv7 8) x05)))
(assert (not (= (_ bv7 8) (_ bv3 8))))
(assert (not (= (_ bv7 8) x07)))
(assert (not (= (_ bv7 8) x08)))
(assert (not (= x05 (_ bv3 8))))
(assert (not (= x05 x07)))
(assert (not (= x05 x08)))
(assert (not (= (_ bv3 8) x07)))
(assert (not (= (_ bv3 8) x08)))
(assert (not (= x07 x08)))
(assert (not (= x10 x11)))
(assert (not (= x10 (_ bv6 8))))
(assert (not (= x10 x13)))
(assert (not (= x10 x14)))
(assert (not (= x10 (_ bv2 8))))
(assert (not (= x10 (_ bv9 8))))
(assert (not (= x10 x17)))
(assert (not (= x10 (_ bv8 8))))
(assert (not (= x11 (_ bv6 8))))
(assert (not (= x11 x13)))
(assert (not (= x11 x14)))
(assert (not (= x11 (_ bv2 8))))
(assert (not (= x11 (_ bv9 8))))
(assert (not (= x11 x17)))
(assert (not (= x11 (_ bv8 8))))
(assert (not (= (_ bv6 8) x13)))
(assert (not (= (_ bv6 8) x14)))
(assert (not (= (_ bv6 8) (_ bv2 8))))
(assert (not (= (_ bv6 8) (_ bv9 8))))
(assert (not (= (_ bv6 8) x17)))
(assert (not (= (_ bv6 8) (_ bv8 8))))
(assert (not (= x13 x14)))
(assert (not (= x13 (_ bv2 8))))
(assert (not (= x13 (_ bv9 8))))
(assert (not (= x13 x17)))
(assert (not (= x13 (_ bv8 8))))
(assert (not (= x14 (_ bv2 8))))
(assert (not (= x14 (_ bv9 8))))
(assert (not (= x14 x17)))
(assert (not (= x14 (_ bv8 8))))
(assert (not (= (_ bv2 8) (_ bv9 8))))
(assert (not (= (_ bv2 8) x17)))
(assert (not (= (_ bv2 8) (_ bv8 8))))
(assert (not (= (_ bv9 8) x17)))
(assert (not (= (_ bv9 8) (_ bv8 8))))
(assert (not (= x17 (_ bv8 8))))
(assert (not (= x20 (_ bv5 8))))
(assert (not (= x20 x22)))
(assert (not (= x20 (_ bv3 8))))
(assert (not (= x20 x24)))
(assert (not (= x20 x25)))
(assert (not (= x20 x26)))
(assert (not (= x20 (_ bv1 8))))
(assert (not (= x20 x28)))
(assert (not (= (_ bv5 8) x22)))
(assert (not (= (_ bv5 8) (_ bv3 8))))
(assert (not (= (_ bv5 8) x24)))
(assert (not (= (_ bv5 8) x25)))
(assert (not (= (_ bv5 8) x26)))
(assert (not (= (_ bv5 8) (_ bv1 8))))
(assert (not (= (_ bv5 8) x28)))
(assert (not (= x22 (_ bv3 8))))
(assert (not (= x22 x24)))
(assert (not (= x22 x25)))
(assert (not (= x22 x26)))
(assert (not (= x22 (_ bv1 8))))
(assert (not (= x22 x28)))
(assert (not (= (_ bv3 8) x24)))
(assert (not (= (_ bv3 8) x25)))
(assert (not (= (_ bv3 8) x26)))
(assert (not (= (_ bv3 8) (_ bv1 8))))
(assert (not (= (_ bv3 8) x28)))
(assert (not (= x24 x25)))
(assert (not (= x24 x26)))
(assert (not (= x24 (_ bv1 8))))
(assert (not (= x24 x28)))
(assert (not (= x25 x26)))
(assert (not (= x25 (_ bv1 8))))
(assert (not (= x25 x28)))
(assert (not (= x26 (_ bv1 8))))
(assert (not (= x26 x28)))
(assert (not (= (_ bv1 8) x28)))
(assert (not (= (_ bv2 8) x31)))
(assert (not (= (_ bv2 8) (_ bv5 8))))
(assert (not (= (_ bv2 8) x33)))
(assert (not (= (_ bv2 8) (_ bv9 8))))
(assert (not (= (_ bv2 8) (_ bv6 8))))
(assert (not (= (_ bv2 8) x36)))
(assert (not (= (_ bv2 8) x37)))
(assert (not (= (_ bv2 8) x38)))
(assert (not (= x31 (_ bv5 8))))
(assert (not (= x31 x33)))
(assert (not (= x31 (_ bv9 8))))
(assert (not (= x31 (_ bv6 8))))
(assert (not (= x31 x36)))
(assert (not (= x31 x37)))
(assert (not (= x31 x38)))
(assert (not (= (_ bv5 8) x33)))
(assert (not (= (_ bv5 8) (_ bv9 8))))
(assert (not (= (_ bv5 8) (_ bv6 8))))
(assert (not (= (_ bv5 8) x36)))
(assert (not (= (_ bv5 8) x37)))
(assert (not (= (_ bv5 8) x38)))
(assert (not (= x33 (_ bv9 8))))
(assert (not (= x33 (_ bv6 8))))
(assert (not (= x33 x36)))
(assert (not (= x33 x37)))
(assert (not (= x33 x38)))
(assert (not (= (_ bv9 8) (_ bv6 8))))
(assert (not (= (_ bv9 8) x36)))
(assert (not (= (_ bv9 8) x37)))
(assert (not (= (_ bv9 8) x38)))
(assert (not (= (_ bv6 8) x36)))
(assert (not (= (_ bv6 8) x37)))
(assert (not (= (_ bv6 8) x38)))
(assert (not (= x36 x37)))
(assert (not (= x36 x38)))
(assert (not (= x37 x38)))
(assert (not (= (_ bv4 8) (_ bv7 8))))
(assert (not (= (_ bv4 8) (_ bv3 8))))
(assert (not (= (_ bv4 8) x43)))
(assert (not (= (_ bv4 8) (_ bv8 8))))
(assert (not (= (_ bv4 8) x45)))
(assert (not (= (_ bv4 8) (_ bv6 8))))
(assert (not (= (_ bv4 8) x47)))
(assert (not (= (_ bv4 8) x48)))
(assert (not (= (_ bv7 8) (_ bv3 8))))
(assert (not (= (_ bv7 8) x43)))
(assert (not (= (_ bv7 8) (_ bv8 8))))
(assert (not (= (_ bv7 8) x45)))
(assert (not (= (_ bv7 8) (_ bv6 8))))
(assert (not (= (_ bv7 8) x47)))
(assert (not (= (_ bv7 8) x48)))
(assert (not (= (_ bv3 8) x43)))
(assert (not (= (_ bv3 8) (_ bv8 8))))
(assert (not (= (_ bv3 8) x45)))
(assert (not (= (_ bv3 8) (_ bv6 8))))
(assert (not (= (_ bv3 8) x47)))
(assert (not (= (_ bv3 8) x48)))
(assert (not (= x43 (_ bv8 8))))
(assert (not (= x43 x45)))
(assert (not (= x43 (_ bv6 8))))
(assert (not (= x43 x47)))
(assert (not (= x43 x48)))
(assert (not (= (_ bv8 8) x45)))
(assert (not (= (_ bv8 8) (_ bv6 8))))
(assert (not (= (_ bv8 8) x47)))
(assert (not (= (_ bv8 8) x48)))
(assert (not (= x45 (_ bv6 8))))
(assert (not (= x45 x47)))
(assert (not (= x45 x48)))
(assert (not (= (_ bv6 8) x47)))
(assert (not (= (_ bv6 8) x48)))
(assert (not (= x47 x48)))
(assert (not (= x50 x51)))
(assert (not (= x50 x52)))
(assert (not (= x50 (_ bv1 8))))
(assert (not (= x50 x54)))
(assert (not (= x50 x55)))
(assert (not (= x50 x56)))
(assert (not (= x50 (_ bv4 8))))
(assert (not (= x50 x58)))
(assert (not (= x51 x52)))
(assert (not (= x51 (_ bv1 8))))
(assert (not (= x51 x54)))
(assert (not (= x51 x55)))
(assert (not (= x51 x56)))
(assert (not (= x51 (_ bv4 8))))
(assert (not (= x51 x58)))
(assert (not (= x52 (_ bv1 8))))
(assert (not (= x52 x54)))
(assert (not (= x52 x55)))
(assert (not (= x52 x56)))
(assert (not (= x52 (_ bv4 8))))
(assert (not (= x52 x58)))
(assert (not (= (_ bv1 8) x54)))
(assert (not (= (_ bv1 8) x55)))
(assert (not (= (_ bv1 8) x56)))
(assert (not (= (_ bv1 8) (_ bv4 8))))
(assert (not (= (_ bv1 8) x58)))
(assert (not (= x54 x55)))
(assert (not (= x54 x56)))
(assert (not (= x54 (_ bv4 8))))
(assert (not (= x54 x58)))
(assert (not (= x55 x56)))
(assert (not (= x55 (_ bv4 8))))
(assert (not (= x55 x58)))
(assert (not (= x56 (_ bv4 8))))
(assert (not (= x56 x58)))
(assert (not (= (_ bv4 8) x58)))
(assert (not (= x60 (_ bv3 8))))
(assert (not (= x60 (_ bv1 8))))
(assert (not (= x60 (_ bv7 8))))
(assert (not (= x60 (_ bv2 8))))
(assert (not (= x60 x65)))
(assert (not (= x60 (_ bv8 8))))
(assert (not (= x60 x67)))
(assert (not (= x60 (_ bv5 8))))
(assert (not (= (_ bv3 8) (_ bv1 8))))
(assert (not (= (_ bv3 8) (_ bv7 8))))
(assert (not (= (_ bv3 8) (_ bv2 8))))
(assert (not (= (_ bv3 8) x65)))
(assert (not (= (_ bv3 8) (_ bv8 8))))
(assert (not (= (_ bv3 8) x67)))
(assert (not (= (_ bv3 8) (_ bv5 8))))
(assert (not (= (_ bv1 8) (_ bv7 8))))
(assert (not (= (_ bv1 8) (_ bv2 8))))
(assert (not (= (_ bv1 8) x65)))
(assert (not (= (_ bv1 8) (_ bv8 8))))
(assert (not (= (_ bv1 8) x67)))
(assert (not (= (_ bv1 8) (_ bv5 8))))
(assert (not (= (_ bv7 8) (_ bv2 8))))
(assert (not (= (_ bv7 8) x65)))
(assert (not (= (_ bv7 8) (_ bv8 8))))
(assert (not (= (_ bv7 8) x67)))
(assert (not (= (_ bv7 8) (_ bv5 8))))
(assert (not (= (_ bv2 8) x65)))
(assert (not (= (_ bv2 8) (_ bv8 8))))
(assert (not (= (_ bv2 8) x67)))
(assert (not (= (_ bv2 8) (_ bv5 8))))
(assert (not (= x65 (_ bv8 8))))
(assert (not (= x65 x67)))
(assert (not (= x65 (_ bv5 8))))
(assert (not (= (_ bv8 8) x67)))
(assert (not (= (_ bv8 8) (_ bv5 8))))
(assert (not (= x67 (_ bv5 8))))
(assert (not (= x70 x71)))
(assert (not (= x70 (_ bv7 8))))
(assert (not (= x70 (_ bv8 8))))
(assert (not (= x70 (_ bv6 8))))
(assert (not (= x70 x75)))
(assert (not (= x70 x76)))
(assert (not (= x70 x77)))
(assert (not (= x70 (_ bv9 8))))
(assert (not (= x71 (_ bv7 8))))
(assert (not (= x71 (_ bv8 8))))
(assert (not (= x71 (_ bv6 8))))
(assert (not (= x71 x75)))
(assert (not (= x71 x76)))
(assert (not (= x71 x77)))
(assert (not (= x71 (_ bv9 8))))
(assert (not (= (_ bv7 8) (_ bv8 8))))
(assert (not (= (_ bv7 8) (_ bv6 8))))
(assert (not (= (_ bv7 8) x75)))
(assert (not (= (_ bv7 8) x76)))
(assert (not (= (_ bv7 8) x77)))
(assert (not (= (_ bv7 8) (_ bv9 8))))
(assert (not (= (_ bv8 8) (_ bv6 8))))
(assert (not (= (_ bv8 8) x75)))
(assert (not (= (_ bv8 8) x76)))
(assert (not (= (_ bv8 8) x77)))
(assert (not (= (_ bv8 8) (_ bv9 8))))
(assert (not (= (_ bv6 8) x75)))
(assert (not (= (_ bv6 8) x76)))
(assert (not (= (_ bv6 8) x77)))
(assert (not (= (_ bv6 8) (_ bv9 8))))
(assert (not (= x75 x76)))
(assert (not (= x75 x77)))
(assert (not (= x75 (_ bv9 8))))
(assert (not (= x76 x77)))
(assert (not (= x76 (_ bv9 8))))
(assert (not (= x77 (_ bv9 8))))
(assert (not (= x80 x81)))
(assert (not (= x80 (_ bv4 8))))
(assert (not (= x80 x83)))
(assert (not (= x80 x84)))
(assert (not (= x80 (_ bv3 8))))
(assert (not (= x80 (_ bv1 8))))
(assert (not (= x80 x87)))
(assert (not (= x80 x88)))
(assert (not (= x81 (_ bv4 8))))
(assert (not (= x81 x83)))
(assert (not (= x81 x84)))
(assert (not (= x81 (_ bv3 8))))
(assert (not (= x81 (_ bv1 8))))
(assert (not (= x81 x87)))
(assert (not (= x81 x88)))
(assert (not (= (_ bv4 8) x83)))
(assert (not (= (_ bv4 8) x84)))
(assert (not (= (_ bv4 8) (_ bv3 8))))
(assert (not (= (_ bv4 8) (_ bv1 8))))
(assert (not (= (_ bv4 8) x87)))
(assert (not (= (_ bv4 8) x88)))
(assert (not (= x83 x84)))
(assert (not (= x83 (_ bv3 8))))
(assert (not (= x83 (_ bv1 8))))
(assert (not (= x83 x87)))
(assert (not (= x83 x88)))
(assert (not (= x84 (_ bv3 8))))
(assert (not (= x84 (_ bv1 8))))
(assert (not (= x84 x87)))
(assert (not (= x84 x88)))
(assert (not (= (_ bv3 8) (_ bv1 8))))
(assert (not (= (_ bv3 8) x87)))
(assert (not (= (_ bv3 8) x88)))
(assert (not (= (_ bv1 8) x87)))
(assert (not (= (_ bv1 8) x88)))
(assert (not (= x87 x88)))
(assert (not (= x00 x10)))
(assert (not (= x00 x20)))
(assert (not (= x00 (_ bv2 8))))
(assert (not (= x00 (_ bv4 8))))
(assert (not (= x00 x50)))
(assert (not (= x00 x60)))
(assert (not (= x00 x70)))
(assert (not (= x00 x80)))
(assert (not (= x10 x20)))
(assert (not (= x10 (_ bv2 8))))
(assert (not (= x10 (_ bv4 8))))
(assert (not (= x10 x50)))
(assert (not (= x10 x60)))
(assert (not (= x10 x70)))
(assert (not (= x10 x80)))
(assert (not (= x20 (_ bv2 8))))
(assert (not (= x20 (_ bv4 8))))
(assert (not (= x20 x50)))
(assert (not (= x20 x60)))
(assert (not (= x20 x70)))
(assert (not (= x20 x80)))
(assert (not (= (_ bv2 8) (_ bv4 8))))
(assert (not (= (_ bv2 8) x50)))
(assert (not (= (_ bv2 8) x60)))
(assert (not (= (_ bv2 8) x70)))
(assert (not (= (_ bv2 8) x80)))
(assert (not (= (_ bv4 8) x50)))
(assert (not (= (_ bv4 8) x60)))
(assert (not (= (_ bv4 8) x70)))
(assert (not (= (_ bv4 8) x80)))
(assert (not (= x50 x60)))
(assert (not (= x50 x70)))
(assert (not (= x50 x80)))
(assert (not (= x60 x70)))
(assert (not (= x60 x80)))
(assert (not (= x70 x80)))
(assert (not (= (_ bv8 8) x11)))
(assert (not (= (_ bv8 8) (_ bv5 8))))
(assert (not (= (_ bv8 8) x31)))
(assert (not (= (_ bv8 8) (_ bv7 8))))
(assert (not (= (_ bv8 8) x51)))
(assert (not (= (_ bv8 8) (_ bv3 8))))
(assert (not (= (_ bv8 8) x71)))
(assert (not (= (_ bv8 8) x81)))
(assert (not (= x11 (_ bv5 8))))
(assert (not (= x11 x31)))
(assert (not (= x11 (_ bv7 8))))
(assert (not (= x11 x51)))
(assert (not (= x11 (_ bv3 8))))
(assert (not (= x11 x71)))
(assert (not (= x11 x81)))
(assert (not (= (_ bv5 8) x31)))
(assert (not (= (_ bv5 8) (_ bv7 8))))
(assert (not (= (_ bv5 8) x51)))
(assert (not (= (_ bv5 8) (_ bv3 8))))
(assert (not (= (_ bv5 8) x71)))
(assert (not (= (_ bv5 8) x81)))
(assert (not (= x31 (_ bv7 8))))
(assert (not (= x31 x51)))
(assert (not (= x31 (_ bv3 8))))
(assert (not (= x31 x71)))
(assert (not (= x31 x81)))
(assert (not (= (_ bv7 8) x51)))
(assert (not (= (_ bv7 8) (_ bv3 8))))
(assert (not (= (_ bv7 8) x71)))
(assert (not (= (_ bv7 8) x81)))
(assert (not (= x51 (_ bv3 8))))
(assert (not (= x51 x71)))
(assert (not (= x51 x81)))
(assert (not (= (_ bv3 8) x71)))
(assert (not (= (_ bv3 8) x81)))
(assert (not (= x71 x81)))
(assert (not (= x02 (_ bv6 8))))
(assert (not (= x02 x22)))
(assert (not (= x02 (_ bv5 8))))
(assert (not (= x02 (_ bv3 8))))
(assert (not (= x02 x52)))
(assert (not (= x02 (_ bv1 8))))
(assert (not (= x02 (_ bv7 8))))
(assert (not (= x02 (_ bv4 8))))
(assert (not (= (_ bv6 8) x22)))
(assert (not (= (_ bv6 8) (_ bv5 8))))
(assert (not (= (_ bv6 8) (_ bv3 8))))
(assert (not (= (_ bv6 8) x52)))
(assert (not (= (_ bv6 8) (_ bv1 8))))
(assert (not (= (_ bv6 8) (_ bv7 8))))
(assert (not (= (_ bv6 8) (_ bv4 8))))
(assert (not (= x22 (_ bv5 8))))
(assert (not (= x22 (_ bv3 8))))
(assert (not (= x22 x52)))
(assert (not (= x22 (_ bv1 8))))
(assert (not (= x22 (_ bv7 8))))
(assert (not (= x22 (_ bv4 8))))
(assert (not (= (_ bv5 8) (_ bv3 8))))
(assert (not (= (_ bv5 8) x52)))
(assert (not (= (_ bv5 8) (_ bv1 8))))
(assert (not (= (_ bv5 8) (_ bv7 8))))
(assert (not (= (_ bv5 8) (_ bv4 8))))
(assert (not (= (_ bv3 8) x52)))
(assert (not (= (_ bv3 8) (_ bv1 8))))
(assert (not (= (_ bv3 8) (_ bv7 8))))
(assert (not (= (_ bv3 8) (_ bv4 8))))
(assert (not (= x52 (_ bv1 8))))
(assert (not (= x52 (_ bv7 8))))
(assert (not (= x52 (_ bv4 8))))
(assert (not (= (_ bv1 8) (_ bv7 8))))
(assert (not (= (_ bv1 8) (_ bv4 8))))
(assert (not (= (_ bv7 8) (_ bv4 8))))
(assert (not (= x03 x13)))
(assert (not (= x03 (_ bv3 8))))
(assert (not (= x03 x33)))
(assert (not (= x03 x43)))
(assert (not (= x03 (_ bv1 8))))
(assert (not (= x03 (_ bv7 8))))
(assert (not (= x03 (_ bv8 8))))
(assert (not (= x03 x83)))
(assert (not (= x13 (_ bv3 8))))
(assert (not (= x13 x33)))
(assert (not (= x13 x43)))
(assert (not (= x13 (_ bv1 8))))
(assert (not (= x13 (_ bv7 8))))
(assert (not (= x13 (_ bv8 8))))
(assert (not (= x13 x83)))
(assert (not (= (_ bv3 8) x33)))
(assert (not (= (_ bv3 8) x43)))
(assert (not (= (_ bv3 8) (_ bv1 8))))
(assert (not (= (_ bv3 8) (_ bv7 8))))
(assert (not (= (_ bv3 8) (_ bv8 8))))
(assert (not (= (_ bv3 8) x83)))
(assert (not (= x33 x43)))
(assert (not (= x33 (_ bv1 8))))
(assert (not (= x33 (_ bv7 8))))
(assert (not (= x33 (_ bv8 8))))
(assert (not (= x33 x83)))
(assert (not (= x43 (_ bv1 8))))
(assert (not (= x43 (_ bv7 8))))
(assert (not (= x43 (_ bv8 8))))
(assert (not (= x43 x83)))
(assert (not (= (_ bv1 8) (_ bv7 8))))
(assert (not (= (_ bv1 8) (_ bv8 8))))
(assert (not (= (_ bv1 8) x83)))
(assert (not (= (_ bv7 8) (_ bv8 8))))
(assert (not (= (_ bv7 8) x83)))
(assert (not (= (_ bv8 8) x83)))
(assert (not (= (_ bv7 8) x14)))
(assert (not (= (_ bv7 8) x24)))
(assert (not (= (_ bv7 8) (_ bv9 8))))
(assert (not (= (_ bv7 8) (_ bv8 8))))
(assert (not (= (_ bv7 8) x54)))
(assert (not (= (_ bv7 8) (_ bv2 8))))
(assert (not (= (_ bv7 8) (_ bv6 8))))
(assert (not (= (_ bv7 8) x84)))
(assert (not (= x14 x24)))
(assert (not (= x14 (_ bv9 8))))
(assert (not (= x14 (_ bv8 8))))
(assert (not (= x14 x54)))
(assert (not (= x14 (_ bv2 8))))
(assert (not (= x14 (_ bv6 8))))
(assert (not (= x14 x84)))
(assert (not (= x24 (_ bv9 8))))
(assert (not (= x24 (_ bv8 8))))
(assert (not (= x24 x54)))
(assert (not (= x24 (_ bv2 8))))
(assert (not (= x24 (_ bv6 8))))
(assert (not (= x24 x84)))
(assert (not (= (_ bv9 8) (_ bv8 8))))
(assert (not (= (_ bv9 8) x54)))
(assert (not (= (_ bv9 8) (_ bv2 8))))
(assert (not (= (_ bv9 8) (_ bv6 8))))
(assert (not (= (_ bv9 8) x84)))
(assert (not (= (_ bv8 8) x54)))
(assert (not (= (_ bv8 8) (_ bv2 8))))
(assert (not (= (_ bv8 8) (_ bv6 8))))
(assert (not (= (_ bv8 8) x84)))
(assert (not (= x54 (_ bv2 8))))
(assert (not (= x54 (_ bv6 8))))
(assert (not (= x54 x84)))
(assert (not (= (_ bv2 8) (_ bv6 8))))
(assert (not (= (_ bv2 8) x84)))
(assert (not (= (_ bv6 8) x84)))
(assert (not (= x05 (_ bv2 8))))
(assert (not (= x05 x25)))
(assert (not (= x05 (_ bv6 8))))
(assert (not (= x05 x45)))
(assert (not (= x05 x55)))
(assert (not (= x05 x65)))
(assert (not (= x05 x75)))
(assert (not (= x05 (_ bv3 8))))
(assert (not (= (_ bv2 8) x25)))
(assert (not (= (_ bv2 8) (_ bv6 8))))
(assert (not (= (_ bv2 8) x45)))
(assert (not (= (_ bv2 8) x55)))
(assert (not (= (_ bv2 8) x65)))
(assert (not (= (_ bv2 8) x75)))
(assert (not (= (_ bv2 8) (_ bv3 8))))
(assert (not (= x25 (_ bv6 8))))
(assert (not (= x25 x45)))
(assert (not (= x25 x55)))
(assert (not (= x25 x65)))
(assert (not (= x25 x75)))
(assert (not (= x25 (_ bv3 8))))
(assert (not (= (_ bv6 8) x45)))
(assert (not (= (_ bv6 8) x55)))
(assert (not (= (_ bv6 8) x65)))
(assert (not (= (_ bv6 8) x75)))
(assert (not (= (_ bv6 8) (_ bv3 8))))
(assert (not (= x45 x55)))
(assert (not (= x45 x65)))
(assert (not (= x45 x75)))
(assert (not (= x45 (_ bv3 8))))
(assert (not (= x55 x65)))
(assert (not (= x55 x75)))
(assert (not (= x55 (_ bv3 8))))
(assert (not (= x65 x75)))
(assert (not (= x65 (_ bv3 8))))
(assert (not (= x75 (_ bv3 8))))
(assert (not (= (_ bv3 8) (_ bv9 8))))
(assert (not (= (_ bv3 8) x26)))
(assert (not (= (_ bv3 8) x36)))
(assert (not (= (_ bv3 8) (_ bv6 8))))
(assert (not (= (_ bv3 8) x56)))
(assert (not (= (_ bv3 8) (_ bv8 8))))
(assert (not (= (_ bv3 8) x76)))
(assert (not (= (_ bv3 8) (_ bv1 8))))
(assert (not (= (_ bv9 8) x26)))
(assert (not (= (_ bv9 8) x36)))
(assert (not (= (_ bv9 8) (_ bv6 8))))
(assert (not (= (_ bv9 8) x56)))
(assert (not (= (_ bv9 8) (_ bv8 8))))
(assert (not (= (_ bv9 8) x76)))
(assert (not (= (_ bv9 8) (_ bv1 8))))
(assert (not (= x26 x36)))
(assert (not (= x26 (_ bv6 8))))
(assert (not (= x26 x56)))
(assert (not (= x26 (_ bv8 8))))
(assert (not (= x26 x76)))
(assert (not (= x26 (_ bv1 8))))
(assert (not (= x36 (_ bv6 8))))
(assert (not (= x36 x56)))
(assert (not (= x36 (_ bv8 8))))
(assert (not (= x36 x76)))
(assert (not (= x36 (_ bv1 8))))
(assert (not (= (_ bv6 8) x56)))
(assert (not (= (_ bv6 8) (_ bv8 8))))
(assert (not (= (_ bv6 8) x76)))
(assert (not (= (_ bv6 8) (_ bv1 8))))
(assert (not (= x56 (_ bv8 8))))
(assert (not (= x56 x76)))
(assert (not (= x56 (_ bv1 8))))
(assert (not (= (_ bv8 8) x76)))
(assert (not (= (_ bv8 8) (_ bv1 8))))
(assert (not (= x76 (_ bv1 8))))
(assert (not (= x07 x17)))
(assert (not (= x07 (_ bv1 8))))
(assert (not (= x07 x37)))
(assert (not (= x07 x47)))
(assert (not (= x07 (_ bv4 8))))
(assert (not (= x07 x67)))
(assert (not (= x07 x77)))
(assert (not (= x07 x87)))
(assert (not (= x17 (_ bv1 8))))
(assert (not (= x17 x37)))
(assert (not (= x17 x47)))
(assert (not (= x17 (_ bv4 8))))
(assert (not (= x17 x67)))
(assert (not (= x17 x77)))
(assert (not (= x17 x87)))
(assert (not (= (_ bv1 8) x37)))
(assert (not (= (_ bv1 8) x47)))
(assert (not (= (_ bv1 8) (_ bv4 8))))
(assert (not (= (_ bv1 8) x67)))
(assert (not (= (_ bv1 8) x77)))
(assert (not (= (_ bv1 8) x87)))
(assert (not (= x37 x47)))
(assert (not (= x37 (_ bv4 8))))
(assert (not (= x37 x67)))
(assert (not (= x37 x77)))
(assert (not (= x37 x87)))
(assert (not (= x47 (_ bv4 8))))
(assert (not (= x47 x67)))
(assert (not (= x47 x77)))
(assert (not (= x47 x87)))
(assert (not (= (_ bv4 8) x67)))
(assert (not (= (_ bv4 8) x77)))
(assert (not (= (_ bv4 8) x87)))
(assert (not (= x67 x77)))
(assert (not (= x67 x87)))
(assert (not (= x77 x87)))
(assert (not (= x08 (_ bv8 8))))
(assert (not (= x08 x28)))
(assert (not (= x08 x38)))
(assert (not (= x08 x48)))
(assert (not (= x08 x58)))
(assert (not (= x08 (_ bv5 8))))
(assert (not (= x08 (_ bv9 8))))
(assert (not (= x08 x88)))
(assert (not (= (_ bv8 8) x28)))
(assert (not (= (_ bv8 8) x38)))
(assert (not (= (_ bv8 8) x48)))
(assert (not (= (_ bv8 8) x58)))
(assert (not (= (_ bv8 8) (_ bv5 8))))
(assert (not (= (_ bv8 8) (_ bv9 8))))
(assert (not (= (_ bv8 8) x88)))
(assert (not (= x28 x38)))
(assert (not (= x28 x48)))
(assert (not (= x28 x58)))
(assert (not (= x28 (_ bv5 8))))
(assert (not (= x28 (_ bv9 8))))
(assert (not (= x28 x88)))
(assert (not (= x38 x48)))
(assert (not (= x38 x58)))
(assert (not (= x38 (_ bv5 8))))
(assert (not (= x38 (_ bv9 8))))
(assert (not (= x38 x88)))
(assert (not (= x48 x58)))
(assert (not (= x48 (_ bv5 8))))
(assert (not (= x48 (_ bv9 8))))
(assert (not (= x48 x88)))
(assert (not (= x58 (_ bv5 8))))
(assert (not (= x58 (_ bv9 8))))
(assert (not (= x58 x88)))
(assert (not (= (_ bv5 8) (_ bv9 8))))
(assert (not (= (_ bv5 8) x88)))
(assert (not (= (_ bv9 8) x88)))
(assert (not (= x00 (_ bv8 8))))
(assert (not (= x00 x02)))
(assert (not (= x00 x10)))
(assert (not (= x00 x11)))
(assert (not (= x00 (_ bv6 8))))
(assert (not (= x00 x20)))
(assert (not (= x00 (_ bv5 8))))
(assert (not (= x00 x22)))
(assert (not (= (_ bv8 8) x02)))
(assert (not (= (_ bv8 8) x10)))
(assert (not (= (_ bv8 8) x11)))
(assert (not (= (_ bv8 8) (_ bv6 8))))
(assert (not (= (_ bv8 8) x20)))
(assert (not (= (_ bv8 8) (_ bv5 8))))
(assert (not (= (_ bv8 8) x22)))
(assert (not (= x02 x10)))
(assert (not (= x02 x11)))
(assert (not (= x02 (_ bv6 8))))
(assert (not (= x02 x20)))
(assert (not (= x02 (_ bv5 8))))
(assert (not (= x02 x22)))
(assert (not (= x10 x11)))
(assert (not (= x10 (_ bv6 8))))
(assert (not (= x10 x20)))
(assert (not (= x10 (_ bv5 8))))
(assert (not (= x10 x22)))
(assert (not (= x11 (_ bv6 8))))
(assert (not (= x11 x20)))
(assert (not (= x11 (_ bv5 8))))
(assert (not (= x11 x22)))
(assert (not (= (_ bv6 8) x20)))
(assert (not (= (_ bv6 8) (_ bv5 8))))
(assert (not (= (_ bv6 8) x22)))
(assert (not (= x20 (_ bv5 8))))
(assert (not (= x20 x22)))
(assert (not (= (_ bv5 8) x22)))
(assert (not (= x03 (_ bv7 8))))
(assert (not (= x03 x05)))
(assert (not (= x03 x13)))
(assert (not (= x03 x14)))
(assert (not (= x03 (_ bv2 8))))
(assert (not (= x03 (_ bv3 8))))
(assert (not (= x03 x24)))
(assert (not (= x03 x25)))
(assert (not (= (_ bv7 8) x05)))
(assert (not (= (_ bv7 8) x13)))
(assert (not (= (_ bv7 8) x14)))
(assert (not (= (_ bv7 8) (_ bv2 8))))
(assert (not (= (_ bv7 8) (_ bv3 8))))
(assert (not (= (_ bv7 8) x24)))
(assert (not (= (_ bv7 8) x25)))
(assert (not (= x05 x13)))
(assert (not (= x05 x14)))
(assert (not (= x05 (_ bv2 8))))
(assert (not (= x05 (_ bv3 8))))
(assert (not (= x05 x24)))
(assert (not (= x05 x25)))
(assert (not (= x13 x14)))
(assert (not (= x13 (_ bv2 8))))
(assert (not (= x13 (_ bv3 8))))
(assert (not (= x13 x24)))
(assert (not (= x13 x25)))
(assert (not (= x14 (_ bv2 8))))
(assert (not (= x14 (_ bv3 8))))
(assert (not (= x14 x24)))
(assert (not (= x14 x25)))
(assert (not (= (_ bv2 8) (_ bv3 8))))
(assert (not (= (_ bv2 8) x24)))
(assert (not (= (_ bv2 8) x25)))
(assert (not (= (_ bv3 8) x24)))
(assert (not (= (_ bv3 8) x25)))
(assert (not (= x24 x25)))
(assert (not (= (_ bv3 8) x07)))
(assert (not (= (_ bv3 8) x08)))
(assert (not (= (_ bv3 8) (_ bv9 8))))
(assert (not (= (_ bv3 8) x17)))
(assert (not (= (_ bv3 8) (_ bv8 8))))
(assert (not (= (_ bv3 8) x26)))
(assert (not (= (_ bv3 8) (_ bv1 8))))
(assert (not (= (_ bv3 8) x28)))
(assert (not (= x07 x08)))
(assert (not (= x07 (_ bv9 8))))
(assert (not (= x07 x17)))
(assert (not (= x07 (_ bv8 8))))
(assert (not (= x07 x26)))
(assert (not (= x07 (_ bv1 8))))
(assert (not (= x07 x28)))
(assert (not (= x08 (_ bv9 8))))
(assert (not (= x08 x17)))
(assert (not (= x08 (_ bv8 8))))
(assert (not (= x08 x26)))
(assert (not (= x08 (_ bv1 8))))
(assert (not (= x08 x28)))
(assert (not (= (_ bv9 8) x17)))
(assert (not (= (_ bv9 8) (_ bv8 8))))
(assert (not (= (_ bv9 8) x26)))
(assert (not (= (_ bv9 8) (_ bv1 8))))
(assert (not (= (_ bv9 8) x28)))
(assert (not (= x17 (_ bv8 8))))
(assert (not (= x17 x26)))
(assert (not (= x17 (_ bv1 8))))
(assert (not (= x17 x28)))
(assert (not (= (_ bv8 8) x26)))
(assert (not (= (_ bv8 8) (_ bv1 8))))
(assert (not (= (_ bv8 8) x28)))
(assert (not (= x26 (_ bv1 8))))
(assert (not (= x26 x28)))
(assert (not (= (_ bv1 8) x28)))
(assert (not (= (_ bv2 8) x31)))
(assert (not (= (_ bv2 8) (_ bv5 8))))
(assert (not (= (_ bv2 8) (_ bv4 8))))
(assert (not (= (_ bv2 8) (_ bv7 8))))
(assert (not (= (_ bv2 8) (_ bv3 8))))
(assert (not (= (_ bv2 8) x50)))
(assert (not (= (_ bv2 8) x51)))
(assert (not (= (_ bv2 8) x52)))
(assert (not (= x31 (_ bv5 8))))
(assert (not (= x31 (_ bv4 8))))
(assert (not (= x31 (_ bv7 8))))
(assert (not (= x31 (_ bv3 8))))
(assert (not (= x31 x50)))
(assert (not (= x31 x51)))
(assert (not (= x31 x52)))
(assert (not (= (_ bv5 8) (_ bv4 8))))
(assert (not (= (_ bv5 8) (_ bv7 8))))
(assert (not (= (_ bv5 8) (_ bv3 8))))
(assert (not (= (_ bv5 8) x50)))
(assert (not (= (_ bv5 8) x51)))
(assert (not (= (_ bv5 8) x52)))
(assert (not (= (_ bv4 8) (_ bv7 8))))
(assert (not (= (_ bv4 8) (_ bv3 8))))
(assert (not (= (_ bv4 8) x50)))
(assert (not (= (_ bv4 8) x51)))
(assert (not (= (_ bv4 8) x52)))
(assert (not (= (_ bv7 8) (_ bv3 8))))
(assert (not (= (_ bv7 8) x50)))
(assert (not (= (_ bv7 8) x51)))
(assert (not (= (_ bv7 8) x52)))
(assert (not (= (_ bv3 8) x50)))
(assert (not (= (_ bv3 8) x51)))
(assert (not (= (_ bv3 8) x52)))
(assert (not (= x50 x51)))
(assert (not (= x50 x52)))
(assert (not (= x51 x52)))
(assert (not (= x33 (_ bv9 8))))
(assert (not (= x33 (_ bv6 8))))
(assert (not (= x33 x43)))
(assert (not (= x33 (_ bv8 8))))
(assert (not (= x33 x45)))
(assert (not (= x33 (_ bv1 8))))
(assert (not (= x33 x54)))
(assert (not (= x33 x55)))
(assert (not (= (_ bv9 8) (_ bv6 8))))
(assert (not (= (_ bv9 8) x43)))
(assert (not (= (_ bv9 8) (_ bv8 8))))
(assert (not (= (_ bv9 8) x45)))
(assert (not (= (_ bv9 8) (_ bv1 8))))
(assert (not (= (_ bv9 8) x54)))
(assert (not (= (_ bv9 8) x55)))
(assert (not (= (_ bv6 8) x43)))
(assert (not (= (_ bv6 8) (_ bv8 8))))
(assert (not (= (_ bv6 8) x45)))
(assert (not (= (_ bv6 8) (_ bv1 8))))
(assert (not (= (_ bv6 8) x54)))
(assert (not (= (_ bv6 8) x55)))
(assert (not (= x43 (_ bv8 8))))
(assert (not (= x43 x45)))
(assert (not (= x43 (_ bv1 8))))
(assert (not (= x43 x54)))
(assert (not (= x43 x55)))
(assert (not (= (_ bv8 8) x45)))
(assert (not (= (_ bv8 8) (_ bv1 8))))
(assert (not (= (_ bv8 8) x54)))
(assert (not (= (_ bv8 8) x55)))
(assert (not (= x45 (_ bv1 8))))
(assert (not (= x45 x54)))
(assert (not (= x45 x55)))
(assert (not (= (_ bv1 8) x54)))
(assert (not (= (_ bv1 8) x55)))
(assert (not (= x54 x55)))
(assert (not (= x36 x37)))
(assert (not (= x36 x38)))
(assert (not (= x36 (_ bv6 8))))
(assert (not (= x36 x47)))
(assert (not (= x36 x48)))
(assert (not (= x36 x56)))
(assert (not (= x36 (_ bv4 8))))
(assert (not (= x36 x58)))
(assert (not (= x37 x38)))
(assert (not (= x37 (_ bv6 8))))
(assert (not (= x37 x47)))
(assert (not (= x37 x48)))
(assert (not (= x37 x56)))
(assert (not (= x37 (_ bv4 8))))
(assert (not (= x37 x58)))
(assert (not (= x38 (_ bv6 8))))
(assert (not (= x38 x47)))
(assert (not (= x38 x48)))
(assert (not (= x38 x56)))
(assert (not (= x38 (_ bv4 8))))
(assert (not (= x38 x58)))
(assert (not (= (_ bv6 8) x47)))
(assert (not (= (_ bv6 8) x48)))
(assert (not (= (_ bv6 8) x56)))
(assert (not (= (_ bv6 8) (_ bv4 8))))
(assert (not (= (_ bv6 8) x58)))
(assert (not (= x47 x48)))
(assert (not (= x47 x56)))
(assert (not (= x47 (_ bv4 8))))
(assert (not (= x47 x58)))
(assert (not (= x48 x56)))
(assert (not (= x48 (_ bv4 8))))
(assert (not (= x48 x58)))
(assert (not (= x56 (_ bv4 8))))
(assert (not (= x56 x58)))
(assert (not (= (_ bv4 8) x58)))
(assert (not (= x60 (_ bv3 8))))
(assert (not (= x60 (_ bv1 8))))
(assert (not (= x60 x70)))
(assert (not (= x60 x71)))
(assert (not (= x60 (_ bv7 8))))
(assert (not (= x60 x80)))
(assert (not (= x60 x81)))
(assert (not (= x60 (_ bv4 8))))
(assert (not (= (_ bv3 8) (_ bv1 8))))
(assert (not (= (_ bv3 8) x70)))
(assert (not (= (_ bv3 8) x71)))
(assert (not (= (_ bv3 8) (_ bv7 8))))
(assert (not (= (_ bv3 8) x80)))
(assert (not (= (_ bv3 8) x81)))
(assert (not (= (_ bv3 8) (_ bv4 8))))
(assert (not (= (_ bv1 8) x70)))
(assert (not (= (_ bv1 8) x71)))
(assert (not (= (_ bv1 8) (_ bv7 8))))
(assert (not (= (_ bv1 8) x80)))
(assert (not (= (_ bv1 8) x81)))
(assert (not (= (_ bv1 8) (_ bv4 8))))
(assert (not (= x70 x71)))
(assert (not (= x70 (_ bv7 8))))
(assert (not (= x70 x80)))
(assert (not (= x70 x81)))
(assert (not (= x70 (_ bv4 8))))
(assert (not (= x71 (_ bv7 8))))
(assert (not (= x71 x80)))
(assert (not (= x71 x81)))
(assert (not (= x71 (_ bv4 8))))
(assert (not (= (_ bv7 8) x80)))
(assert (not (= (_ bv7 8) x81)))
(assert (not (= (_ bv7 8) (_ bv4 8))))
(assert (not (= x80 x81)))
(assert (not (= x80 (_ bv4 8))))
(assert (not (= x81 (_ bv4 8))))
(assert (not (= (_ bv7 8) (_ bv2 8))))
(assert (not (= (_ bv7 8) x65)))
(assert (not (= (_ bv7 8) (_ bv8 8))))
(assert (not (= (_ bv7 8) (_ bv6 8))))
(assert (not (= (_ bv7 8) x75)))
(assert (not (= (_ bv7 8) x83)))
(assert (not (= (_ bv7 8) x84)))
(assert (not (= (_ bv7 8) (_ bv3 8))))
(assert (not (= (_ bv2 8) x65)))
(assert (not (= (_ bv2 8) (_ bv8 8))))
(assert (not (= (_ bv2 8) (_ bv6 8))))
(assert (not (= (_ bv2 8) x75)))
(assert (not (= (_ bv2 8) x83)))
(assert (not (= (_ bv2 8) x84)))
(assert (not (= (_ bv2 8) (_ bv3 8))))
(assert (not (= x65 (_ bv8 8))))
(assert (not (= x65 (_ bv6 8))))
(assert (not (= x65 x75)))
(assert (not (= x65 x83)))
(assert (not (= x65 x84)))
(assert (not (= x65 (_ bv3 8))))
(assert (not (= (_ bv8 8) (_ bv6 8))))
(assert (not (= (_ bv8 8) x75)))
(assert (not (= (_ bv8 8) x83)))
(assert (not (= (_ bv8 8) x84)))
(assert (not (= (_ bv8 8) (_ bv3 8))))
(assert (not (= (_ bv6 8) x75)))
(assert (not (= (_ bv6 8) x83)))
(assert (not (= (_ bv6 8) x84)))
(assert (not (= (_ bv6 8) (_ bv3 8))))
(assert (not (= x75 x83)))
(assert (not (= x75 x84)))
(assert (not (= x75 (_ bv3 8))))
(assert (not (= x83 x84)))
(assert (not (= x83 (_ bv3 8))))
(assert (not (= x84 (_ bv3 8))))
(assert (not (= (_ bv8 8) x67)))
(assert (not (= (_ bv8 8) (_ bv5 8))))
(assert (not (= (_ bv8 8) x76)))
(assert (not (= (_ bv8 8) x77)))
(assert (not (= (_ bv8 8) (_ bv9 8))))
(assert (not (= (_ bv8 8) (_ bv1 8))))
(assert (not (= (_ bv8 8) x87)))
(assert (not (= (_ bv8 8) x88)))
(assert (not (= x67 (_ bv5 8))))
(assert (not (= x67 x76)))
(assert (not (= x67 x77)))
(assert (not (= x67 (_ bv9 8))))
(assert (not (= x67 (_ bv1 8))))
(assert (not (= x67 x87)))
(assert (not (= x67 x88)))
(assert (not (= (_ bv5 8) x76)))
(assert (not (= (_ bv5 8) x77)))
(assert (not (= (_ bv5 8) (_ bv9 8))))
(assert (not (= (_ bv5 8) (_ bv1 8))))
(assert (not (= (_ bv5 8) x87)))
(assert (not (= (_ bv5 8) x88)))
(assert (not (= x76 x77)))
(assert (not (= x76 (_ bv9 8))))
(assert (not (= x76 (_ bv1 8))))
(assert (not (= x76 x87)))
(assert (not (= x76 x88)))
(assert (not (= x77 (_ bv9 8))))
(assert (not (= x77 (_ bv1 8))))
(assert (not (= x77 x87)))
(assert (not (= x77 x88)))
(assert (not (= (_ bv9 8) (_ bv1 8))))
(assert (not (= (_ bv9 8) x87)))
(assert (not (= (_ bv9 8) x88)))
(assert (not (= (_ bv1 8) x87)))
(assert (not (= (_ bv1 8) x88)))
(assert (not (= x87 x88)))
(check-sat)
(exit)
